-18476.0 -18835.0 
-18649.0 -18424.0 
-18634.0 -18527.0 
-18499.0 -18802.0 
-18609.0 -18708.0 
-18634.0 -18527.0 
-18546.0 -18796.0 
-18592.0 -18741.0 
-18575.0 -18769.0 
-18558.0 -18776.0 
-18609.0 -18708.0 
-18606.0 -18724.0 
-18546.0 -18796.0 
-18606.0 -18724.0 
-18546.0 -18796.0 
-18606.0 -18724.0 
-18546.0 -18796.0 
-18546.0 -18796.0 
-18546.0 -18796.0 
-18546.0 -18796.0 
-18546.0 -18796.0 
-18546.0 -18796.0 
-18606.0 -18724.0 
-18546.0 -18796.0 
-18546.0 -18796.0 
-18546.0 -18796.0 
-18546.0 -18796.0 
-18546.0 -18796.0 
-18546.0 -18796.0 
-18546.0 -18796.0 
-18606.0 -18724.0 
-18546.0 -18796.0 
-18546.0 -18796.0 
-18546.0 -18796.0 
-18546.0 -18796.0 
-18546.0 -18796.0 
-18546.0 -18796.0 
-18546.0 -18796.0 
-18546.0 -18796.0 
-18546.0 -18796.0 
-18606.0 -18724.0 
-18546.0 -18796.0 
-18546.0 -18796.0 
-18546.0 -18796.0 
-18606.0 -18724.0 
-18546.0 -18796.0 
-18546.0 -18796.0 
-18546.0 -18796.0 
-18546.0 -18796.0 
-18546.0 -18796.0 
-18546.0 -18796.0 
-18546.0 -18796.0 
-18546.0 -18796.0 
-18546.0 -18796.0 
-18546.0 -18796.0 
-18546.0 -18796.0 
-18546.0 -18796.0 
-18546.0 -18796.0 
-18546.0 -18796.0 
-18546.0 -18796.0 
-18606.0 -18724.0 
-18546.0 -18796.0 
-18546.0 -18796.0 
-18546.0 -18796.0 
-18546.0 -18796.0 
-18546.0 -18796.0 
-18546.0 -18796.0 
-18546.0 -18796.0 
-18606.0 -18724.0 
-18606.0 -18724.0 
-18546.0 -18796.0 
-18546.0 -18796.0 
-18546.0 -18796.0 
-18546.0 -18796.0 
-18546.0 -18796.0 
-18546.0 -18796.0 
-18546.0 -18796.0 
-18546.0 -18796.0 
-18546.0 -18796.0 
-18546.0 -18796.0 
-18546.0 -18796.0 
-18546.0 -18796.0 
-18546.0 -18796.0 
-18546.0 -18796.0 
-18546.0 -18796.0 
-18546.0 -18796.0 
-18546.0 -18796.0 
-18546.0 -18796.0 
-18606.0 -18724.0 
-18546.0 -18796.0 
-18546.0 -18796.0 
-18546.0 -18796.0 
-18546.0 -18796.0 
-18546.0 -18796.0 
-18546.0 -18796.0 
-18546.0 -18796.0 
-18546.0 -18796.0 
-18546.0 -18796.0 
-18546.0 -18796.0 
-18546.0 -18796.0 
